webassembly/ejemplos_dzn/folder9_json_92.dzn
TERM = { '.', 'in_1', 'local_0', 'local_1', 'in_2', 'in_4', 'in_3', 's(0)', 'in_0'};
null = '.';
s = 9;
n = 10;
ndeps = 3;
max_registers_sz = 5;
NR = 2;
registers = [|'local_0', 's(0)', |'local_1', 's(0)'|];
dependencies = [|'i32.store16_0', 'call[function_index(0)]_3', |'call[function_index(0)]_3', 'i32.load_4', |'i32.load_4', 'call[function_index(1)]_7'|];
GET_ENUM = { GET1, GET2, GET3, GET4, GET5, GET6, GET7};
SET_ENUM = { SET1, SET2, SET3, SET4, SET5, SET6, SET7};
TEE_ENUM = { TEE1, TEE2, TEE3, TEE4, TEE5, TEE6, TEE7};
N = 4;
OP = { 'call[function_index(0)]_3', 'call[function_index(1)]_7', 'i32.store16_0', 'i32.load_4' };
in_ops = [1, 0, 2, 1 ];
out_ops = [0, 0, 0, 1 ];
in1 = ['in_3', '.', 'in_0', 'in_4' ];
in2 = ['.', '.', 'in_1', '.' ];
in3 = ['.', '.', '.', '.' ];
out1 = ['.', '.', '.', 's(0)' ];
out2 = ['.', '.', '.', '.' ];
out3 = ['.', '.', '.', '.' ];
comm = [false, false, false, false ];
gas = [1, 1, 1, 1 ];
sz = [1, 1, 1, 1 ];
stor = [true, true, true, false ];
lb = [ 1, 1, 1, 1 ];
ub = [ 9, 9, 9, 9 ];
startstack = [ 'in_0', 'in_1', 'in_2', 'in_3', 'in_4', null, null, null, null, null ];
endstack = [ 's(0)', null, null, null, null, null, null, null, null, null ];
