webassembly/ejemplos_results/9/folder9_json_92.txt
value = 9;
fgas = [1, 1, 1, 1, 1, 1, 1, 1, 1];
fsize = [1, 1, 1, 1, 1, 1, 1, 1, 1];
states = 
[|   in_0, in_1, in_2, in_3, in_4, '.', '.', '.', '.', '.'
 |   in_3, in_0, in_4,  '.',  '.', '.', '.', '.', '.', '.'
 |   in_3, in_0, in_4,  '.',  '.', '.', '.', '.', '.', '.'
 |   in_3, in_0, in_4,  '.',  '.', '.', '.', '.', '.', '.'
 | 's(0)', in_4,  '.',  '.',  '.', '.', '.', '.', '.', '.'
 | 's(0)', in_4,  '.',  '.',  '.', '.', '.', '.', '.', '.'
 |   in_4,  '.',  '.',  '.',  '.', '.', '.', '.', '.', '.'
 | 's(0)',  '.',  '.',  '.',  '.', '.', '.', '.', '.', '.'
 | 's(0)',  '.',  '.',  '.',  '.', '.', '.', '.', '.', '.'
 | 's(0)',  '.',  '.',  '.',  '.', '.', '.', '.', '.', '.'
 |];
register_states = 
[| local_0, local_1, '.', '.', '.', '.', '.'
 | local_0, local_1, '.', '.', '.', '.', '.'
 |    in_3, local_1, '.', '.', '.', '.', '.'
 |    in_3, local_1, '.', '.', '.', '.', '.'
 |    in_3, local_1, '.', '.', '.', '.', '.'
 |  's(0)', local_1, '.', '.', '.', '.', '.'
 |  's(0)',  's(0)', '.', '.', '.', '.', '.'
 |  's(0)',  's(0)', '.', '.', '.', '.', '.'
 |  's(0)',  's(0)', '.', '.', '.', '.', '.'
 |  's(0)',  's(0)', '.', '.', '.', '.', '.'
 |];
program = [O('i32.store16_0'), TEE(TEE1), TEE(TEE1), O('call[function_index(0)]_3'), TEE(TEE1), S(SET2), O('i32.load_4'), TEE(TEE1), O('call[function_index(1)]_7')];
% time elapsed: 0.16 s
----------
value = 8;
fgas = [1, 1, 1, 1, 1, 1, 1, 1, 0];
fsize = [1, 1, 1, 1, 1, 1, 1, 1, 1];
states = 
[|   in_0, in_1, in_2, in_3, in_4, '.', '.', '.', '.', '.'
 |   in_0, in_1, in_2, in_3, in_4, '.', '.', '.', '.', '.'
 |   in_0, in_1, in_2, in_3, in_4, '.', '.', '.', '.', '.'
 |   in_4, in_3, in_4,  '.',  '.', '.', '.', '.', '.', '.'
 | 's(0)', in_3, in_4,  '.',  '.', '.', '.', '.', '.', '.'
 | 's(0)', in_3, in_4,  '.',  '.', '.', '.', '.', '.', '.'
 | 's(0)', in_3, in_4,  '.',  '.', '.', '.', '.', '.', '.'
 |   in_3, in_4,  '.',  '.',  '.', '.', '.', '.', '.', '.'
 | 's(0)',  '.',  '.',  '.',  '.', '.', '.', '.', '.', '.'
 | 's(0)',  '.',  '.',  '.',  '.', '.', '.', '.', '.', '.'
 |];
register_states = 
[| local_0, local_1, '.', '.', '.', '.', '.'
 | local_0, local_1, '.', '.', '.', '.', '.'
 | local_0, local_1, '.', '.', '.', '.', '.'
 | local_0, local_1, '.', '.', '.', '.', '.'
 | local_0, local_1, '.', '.', '.', '.', '.'
 |  's(0)', local_1, '.', '.', '.', '.', '.'
 |  's(0)', local_1, '.', '.', '.', '.', '.'
 |  's(0)',  's(0)', '.', '.', '.', '.', '.'
 |  's(0)',  's(0)', '.', '.', '.', '.', '.'
 |  's(0)',  's(0)', '.', '.', '.', '.', '.'
 |];
program = [O('call[function_index(1)]_7'), O('call[function_index(1)]_7'), O('i32.store16_0'), O('i32.load_4'), TEE(TEE1), TEE(TEE1), S(SET2), O('call[function_index(0)]_3'), NOP];
% time elapsed: 0.17 s
----------
value = 7;
fgas = [1, 1, 1, 1, 1, 1, 1, 0, 0];
fsize = [1, 1, 1, 1, 1, 1, 1, 1, 1];
states = 
[|   in_0, in_1, in_2, in_3, in_4, '.', '.', '.', '.', '.'
 |   in_0, in_1, in_2, in_3, in_4, '.', '.', '.', '.', '.'
 |   in_4, in_3, in_4,  '.',  '.', '.', '.', '.', '.', '.'
 | 's(0)', in_3, in_4,  '.',  '.', '.', '.', '.', '.', '.'
 |   in_3, in_4,  '.',  '.',  '.', '.', '.', '.', '.', '.'
 | 's(0)',  '.',  '.',  '.',  '.', '.', '.', '.', '.', '.'
 | 's(0)',  '.',  '.',  '.',  '.', '.', '.', '.', '.', '.'
 | 's(0)',  '.',  '.',  '.',  '.', '.', '.', '.', '.', '.'
 | 's(0)',  '.',  '.',  '.',  '.', '.', '.', '.', '.', '.'
 | 's(0)',  '.',  '.',  '.',  '.', '.', '.', '.', '.', '.'
 |];
register_states = 
[| local_0, local_1, '.', '.', '.', '.', '.'
 | local_0, local_1, '.', '.', '.', '.', '.'
 | local_0, local_1, '.', '.', '.', '.', '.'
 | local_0, local_1, '.', '.', '.', '.', '.'
 | local_0,  's(0)', '.', '.', '.', '.', '.'
 | local_0,  's(0)', '.', '.', '.', '.', '.'
 |  's(0)',  's(0)', '.', '.', '.', '.', '.'
 |  's(0)',  's(0)', '.', '.', '.', '.', '.'
 |  's(0)',  's(0)', '.', '.', '.', '.', '.'
 |  's(0)',  's(0)', '.', '.', '.', '.', '.'
 |];
program = [O('call[function_index(1)]_7'), O('i32.store16_0'), O('i32.load_4'), S(SET2), O('call[function_index(0)]_3'), TEE(TEE1), TEE(TEE2), NOP, NOP];
% time elapsed: 0.17 s
----------
value = 6;
fgas = [1, 1, 1, 1, 1, 1, 0, 0, 0];
fsize = [1, 1, 1, 1, 1, 1, 1, 1, 1];
states = 
[|   in_0, in_1, in_2, in_3, in_4, '.', '.', '.', '.', '.'
 |   in_0, in_1, in_2, in_3, in_4, '.', '.', '.', '.', '.'
 |   in_4, in_3, in_4,  '.',  '.', '.', '.', '.', '.', '.'
 | 's(0)', in_3, in_4,  '.',  '.', '.', '.', '.', '.', '.'
 |   in_3, in_4,  '.',  '.',  '.', '.', '.', '.', '.', '.'
 | 's(0)',  '.',  '.',  '.',  '.', '.', '.', '.', '.', '.'
 | 's(0)',  '.',  '.',  '.',  '.', '.', '.', '.', '.', '.'
 | 's(0)',  '.',  '.',  '.',  '.', '.', '.', '.', '.', '.'
 | 's(0)',  '.',  '.',  '.',  '.', '.', '.', '.', '.', '.'
 | 's(0)',  '.',  '.',  '.',  '.', '.', '.', '.', '.', '.'
 |];
register_states = 
[| local_0, local_1, '.', '.', '.', '.', '.'
 | local_0, local_1, '.', '.', '.', '.', '.'
 | local_0, local_1, '.', '.', '.', '.', '.'
 | local_0, local_1, '.', '.', '.', '.', '.'
 | local_0,  's(0)', '.', '.', '.', '.', '.'
 | local_0,  's(0)', '.', '.', '.', '.', '.'
 |  's(0)',  's(0)', '.', '.', '.', '.', '.'
 |  's(0)',  's(0)', '.', '.', '.', '.', '.'
 |  's(0)',  's(0)', '.', '.', '.', '.', '.'
 |  's(0)',  's(0)', '.', '.', '.', '.', '.'
 |];
program = [O('call[function_index(1)]_7'), O('i32.store16_0'), O('i32.load_4'), S(SET2), O('call[function_index(0)]_3'), TEE(TEE1), NOP, NOP, NOP];
% time elapsed: 0.17 s
----------
==========
% time elapsed: 0.17 s
% [value > 5]
